c Created with the Wolfram Language : www.wolfram.com
c 
p edge 90 215
e 1 8
e 5 10
e 6 10
e 5 11
e 7 11
e 10 12
e 2 15
e 13 16
e 5 18
e 7 18
e 17 19
e 15 20
e 19 20
e 4 21
e 9 21
e 12 21
e 16 21
e 7 22
e 13 22
e 6 23
e 10 25
e 4 26
e 17 26
e 5 27
e 2 29
e 20 29
e 15 31
e 26 31
e 12 32
e 13 33
e 28 33
e 3 34
e 9 36
e 15 36
e 19 36
e 21 40
e 37 40
e 24 41
e 35 42
e 11 44
e 14 44
e 20 44
e 26 44
e 30 44
e 9 45
e 21 45
e 27 45
e 34 45
e 23 46
e 24 46
e 42 46
e 5 47
e 40 47
e 46 47
e 4 49
e 44 49
e 5 50
e 5 51
e 8 51
e 49 51
e 8 52
e 15 52
e 42 52
e 44 52
e 22 53
e 23 53
e 24 53
e 4 54
e 12 54
e 16 54
e 32 54
e 46 55
e 52 55
e 53 55
e 18 56
e 28 56
e 38 56
e 24 58
e 44 58
e 45 58
e 1 59
e 18 59
e 31 59
e 44 59
e 54 59
e 18 60
e 32 60
e 45 60
e 51 60
e 21 61
e 35 61
e 39 61
e 41 61
e 51 61
e 60 61
e 17 62
e 56 62
e 19 63
e 22 63
e 12 64
e 19 64
e 33 64
e 46 64
e 47 64
e 52 64
e 62 64
e 29 65
e 43 65
e 57 65
e 33 66
e 43 67
e 45 67
e 46 67
e 52 67
e 13 68
e 61 68
e 62 68
e 21 69
e 36 69
e 53 69
e 61 69
e 1 70
e 16 70
e 32 70
e 60 70
e 5 71
e 9 71
e 45 71
e 51 71
e 54 71
e 40 72
e 47 72
e 48 72
e 31 73
e 1 74
e 6 74
e 10 74
e 32 74
e 21 75
e 27 75
e 4 76
e 24 76
e 31 76
e 45 76
e 69 76
e 70 76
e 15 77
e 35 77
e 38 77
e 68 77
e 45 78
e 19 79
e 29 79
e 41 79
e 55 79
e 5 80
e 15 80
e 62 81
e 2 82
e 34 82
e 48 82
e 69 82
e 81 82
e 4 83
e 28 83
e 44 83
e 59 83
e 68 83
e 5 84
e 10 84
e 17 84
e 22 84
e 25 84
e 35 84
e 72 84
e 73 84
e 77 84
e 80 84
e 20 85
e 38 85
e 58 85
e 73 85
e 82 85
e 34 86
e 44 86
e 53 86
e 54 86
e 61 86
e 9 87
e 16 87
e 17 87
e 27 87
e 40 87
e 43 87
e 54 87
e 75 87
e 76 87
e 77 87
e 2 88
e 7 88
e 14 88
e 19 88
e 25 88
e 52 88
e 58 88
e 72 88
e 73 88
e 80 88
e 27 89
e 29 89
e 9 90
e 35 90
e 40 90
e 43 90
e 84 90
